5 5
4 18 1 95 2 16 3 51 0 37
3 14 2 68 1 30 0 60 4 53
3 97 4 36 0 30 2 64 1 14
0 23 4 48 2 28 3 7 1 42
2 10 4 68 0 44 3 13 1 85
-1
0 3 4 5
0 3 5
0 3 4 5
0 3 4 5
0 2 4 5
-2
142 189 235
116 235
208 315 279
109 153 155
91 181 221

301 9
15 22 12 8 4
1 7 24 19 14
20 6 2 17 13
5 10 23 3 18
0 21 11 16 9
